nNurses = 144;
nHours = 29;
minHours = 7;
maxHours = 16;
maxConsec = 12;
maxPresence = 22;
demand = [26, 31, 33, 37, 35, 37, 40, 40, 38, 39, 39, 38, 39, 36, 31, 26, 27, 24, 23, 25, 23, 20, 18, 17, 15, 19, 15, 18, 16];
